unknown
(model
(declare-sort BoundSet 0)
(declare-sort UnboundSet 0)
(define-fun IsCooking ((BOUND_VARIABLE_299 BoundSet)) Bool false)
(define-fun IsTalking ((BOUND_VARIABLE_310 BoundSet) (BOUND_VARIABLE_311 BoundSet)) Bool false)
(define-fun IsInKitchen ((BOUND_VARIABLE_299 BoundSet)) Bool false)
)
sat
(model
; cardinality of BoundSet is 1
(declare-sort BoundSet 0)
; rep: @uc_BoundSet_0
(declare-sort UnboundSet 0)
(define-fun IsCooking ((BOUND_VARIABLE_322 BoundSet)) Bool false)
(define-fun IsTalking ((BOUND_VARIABLE_333 BoundSet) (BOUND_VARIABLE_334 BoundSet)) Bool false)
(define-fun IsInKitchen ((BOUND_VARIABLE_322 BoundSet)) Bool false)
)
